c instance by G2
c solution = 1010010110011001101
c Known solution cost is 886 
p cnf 19 30
w 13 44 49 62 30 99 74 51 50 47 28 94 42 10 30 21 42 8 92
-17 18 -14 0
-18 5 7 0
17 16 -14 0
15 -17 12 0
-9 -14 10 0
7 10 1 0
-1 10 -14 0
18 14 6 0
10 3 6 0
2 18 17 0
-1 -12 -2 0
-13 -6 9 0
-19 -7 10 0
-9 -6 -4 0
-9 10 -15 0
18 -12 -10 0
10 1 -6 0
12 -19 -11 0
10 8 -4 0
-5 -3 -6 0
12 8 11 0
-13 3 -6 0
-12 -6 -11 0
13 -16 18 0
2 -12 16 0
5 -18 -4 0
4 -3 9 0
-17 19 10 0
-12 -11 6 0
8 15 -17 0
